============================[ Problem Statistics ]=============================|                                                                             ||  Number of variables:          4242                                         ||  Number of clauses:            9700                                         ||  Parse time:                   0.11 s                                       ||                                                                             |============================[ Search Statistics ]==============================| Conflicts |          ORIGINAL         |          LEARNT          | Progress ||           |    Vars  Clauses Literals |    Limit  Clauses Lit/Cl |          |==============================================================================================================================================================restarts              : 1conflicts             : 65             (399 /sec)decisions             : 151            (0.00 % random) (926 /sec)propagations          : 8166           (50098 /sec)conflict literals     : 3107           (95.93 % deleted)CPU time              : 0.163 sSATISFIABLE